130 6716
1 39 71 130 50 2 80 20 4 93 22 23 13 96 67 10 14 122 55 6 102 91 72 49 58 106 38 100 27 19 43 107 127 104 34 31 17 54 35 118 46 18 8 108 3 114 126 33 21 37 47 40 44 42 51 60 120 53 92 73 99 74 75 52 65 103 77 113 32 36 84 119 111 123 101 82 57 9 56 12 87 81 79 95 116 24 15 29 94 89 110 98 25 48 68 63 70 7 97 26 88 86 69 64 124 129 61 109 76 11 5 45 16 62 115 28 125 90 85 66 78 121 59 30 83 117 112 105 128 41 
